benchmarks_vrp/CMT1/min_c/CMT1_0.vrp
NAME: CMT1_0
TYPE: CVRP
COMMENT: 524.61 - Cluster Nr.0
DIMENSION: 16
CAPACITY: 160
EDGE_WEIGHT_TYPE: EUC_2D
NODE_COORD_TYPE: TWOD_COORDS
NODE_COORD_SECTION: 
6 42 41
12 37 52
7 52 64
2 57 58
9 63 69
13 61 33
8 38 46
4 62 42
14 58 48
10 30 40
1 62 63
16 49 49
11 43 67
15 56 37
5 52 41
3 42 57
DEPOT_SECTION: 
10
-1
DEMAND_SECTION: 
4 8
15 10
11 14
14 6
13 26
5 15
3 8
9 6
7 16
16 30
12 7
8 12
1 17
2 28
6 19
10 0
EOF
