benchmarks_vrp/CMT1/min_c/CMT1_0.tour
NAME: CMT1_0 solution
TYPE: TOUR
TOUR_SECTION:
10 8 16 5 6 -1
10 12 3 11 7 9 1 2 14 4 13 15 -1
-1
EOF